Instancias/Instancias_pequeñas/instance6A.dat
6 

0 40 92 23 92 26 
34 0 43 17 23 34 
6 95 0 89 3 66 
96 67 83 0 97 79 
19 15 78 20 0 27 
44 51 18 81 66 0 

0 45 49 81 7 68 
44 0 61 100 11 55 
73 62 0 46 35 19 
76 70 14 0 57 11 
100 45 66 54 0 82 
13 85 64 62 62 0 
