Soluciones/instance6A.out
70632 0.00061
6
1 4 0 2 5 3 